72 66734
12 53 2 21 35 17 8 31 18 3 52 47 14 26 28 10 70 56 34 29 51 65 22 38 23 60 27 43 32 37 13 1 59 7 16 30 24 20 36 6 55 46 49 39 61 25 41 4 57 44 71 33 67 64 11 69 72 66 42 63 50 9 62 45 5 15 58 19 40 48 68 54 
